13
2 0 9
2 1 12
4 0 19
4 1 1
4 3 8
5 3 25
5 4 29
6 0 27
6 3 20
6 4 13
7 2 27
7 5 10
8 3 12
8 4 30
8 5 23
8 6 26
9 0 2
9 1 22
9 2 21
9 3 22
9 4 17
9 6 22
9 8 11
10 1 10
10 5 26
10 6 12
10 7 16
10 9 14
11 0 17
11 1 29
11 4 13
11 5 5
11 6 30
11 9 4
12 1 12
12 2 13
12 3 16
12 4 27
12 6 6
12 8 23
12 10 26
